
Log started (V12.10.0.0) Sun Apr  4 09:35:30 2021


Problem 'asset.lp' read.
Read time = 0.01 sec. (0.31 ticks)
New value for default parallel thread count: 1
New value for time limit in seconds: 300
Version identifier: 12.10.0.0 | 2019-11-26 | 843d4de
CPXPARAM_Threads                                 1
CPXPARAM_TimeLimit                               300
Found incumbent of value -0.898916 after 0.00 sec. (0.15 ticks)
Tried aggregator 3 times.
MIP Presolve eliminated 984 rows and 860 columns.
MIP Presolve modified 2879 coefficients.
Aggregator did 814 substitutions.
Reduced MIP has 1052 rows, 1107 columns, and 4920 nonzeros.
Reduced MIP has 922 binaries, 146 generals, 0 SOSs, and 0 indicators.
Presolve time = 0.01 sec. (10.84 ticks)
Probing fixed 310 vars, tightened 41 bounds.
Probing time = 0.01 sec. (3.60 ticks)
Cover probing fixed 0 vars, tightened 162 bounds.
Tried aggregator 2 times.
MIP Presolve eliminated 412 rows and 408 columns.
MIP Presolve modified 81 coefficients.
Aggregator did 1 substitutions.
Reduced MIP has 639 rows, 697 columns, and 2559 nonzeros.
Reduced MIP has 555 binaries, 103 generals, 0 SOSs, and 0 indicators.
Presolve time = 0.01 sec. (4.83 ticks)
Probing time = 0.00 sec. (1.67 ticks)
Tried aggregator 1 time.
Detecting symmetries...
MIP Presolve modified 92 coefficients.
Reduced MIP has 639 rows, 697 columns, and 2559 nonzeros.
Reduced MIP has 555 binaries, 103 generals, 0 SOSs, and 0 indicators.
Presolve time = 0.00 sec. (1.80 ticks)
Probing time = 0.00 sec. (1.66 ticks)
Clique table members: 1816.
MIP emphasis: balance optimality and feasibility.
MIP search method: dynamic search.
Parallel mode: none, using 1 thread.
Root relaxation solution time = 0.01 sec. (10.11 ticks)

        Nodes                                         Cuts/
   Node  Left     Objective  IInf  Best Integer    Best Bound    ItCnt     Gap

*     0+    0                           -0.8989      488.7619              --- 
      0     0      363.3641   243       -0.8989      363.3641      581     --- 
      0     0      357.6561   243       -0.8989     Cuts: 259      880     --- 
      0     0      353.6098   243       -0.8989     Cuts: 259     1165     --- 
      0     0      352.6841   243       -0.8989     Cuts: 164     1348     --- 
      0     0      352.1806   243       -0.8989     Cuts: 151     1457     --- 
      0     0      352.1784   243       -0.8989     Cuts: 123     1503     --- 
Detecting symmetries...
      0     0      352.1779   243       -0.8989      Cuts: 60     1560     --- 
*     0+    0                          323.3853      352.1779             8.90%
*     0+    0                          323.3862      352.1779             8.90%
      0     0        cutoff            323.3862      352.1779     1560    8.90%
Detecting symmetries...
      0     2      352.1779   165      323.3862      352.1779     1560    8.90%
Elapsed time = 0.20 sec. (201.16 ticks, tree = 0.01 MB, solutions = 2)
    221   192      350.2468   109      323.3862      352.1778     5855    8.90%
    476   429      352.1391    87      323.3862      352.1771    11536    8.90%
*   525+  475                          323.3863      352.1771             8.90%
*   526+  476                          323.3864      352.1771             8.90%
*   527+  477                          323.3868      352.1769             8.90%
*   527+  477                          323.3869      352.1769             8.90%
*   627+  572                          323.3869      352.1765             8.90%
    654   598      350.0077    77      323.3869      352.1765    15056    8.90%

Performing restart 1

Repeating presolve.
Tried aggregator 1 time.
MIP Presolve modified 409 coefficients.
Reduced MIP has 639 rows, 697 columns, and 2286 nonzeros.
Reduced MIP has 555 binaries, 103 generals, 0 SOSs, and 0 indicators.
Presolve time = 0.00 sec. (2.11 ticks)
Tried aggregator 1 time.
Reduced MIP has 639 rows, 697 columns, and 2286 nonzeros.
Reduced MIP has 555 binaries, 103 generals, 0 SOSs, and 0 indicators.
Presolve time = 0.00 sec. (1.73 ticks)
Represolve time = 0.01 sec. (10.46 ticks)
    737     0      352.1394   151      323.3869     Cuts: 153    17263    8.89%
    737     0      352.1376   151      323.3869     Cuts: 104    17439    8.89%
    737     0      352.1362   151      323.3869     Cuts: 121    17507    8.89%
    737     0      352.1008   151      323.3869      Cuts: 89    17673    8.88%
    737     0      352.0888   151      323.3869     Cuts: 134    17785    8.88%
    737     0      352.0229   151      323.3869     Cuts: 102    18001    8.86%
    737     0      351.9807   151      323.3869     Cuts: 126    18288    8.84%
    737     0      351.9487   151      323.3869     Cuts: 114    18381    8.83%
*   737+    0                          323.3869      351.9487             8.83%
    737     0        cutoff            323.3869      351.9487    18381    8.83%
    737     0      351.9281   151      323.3869      Cuts: 86    18451    8.83%
    737     0      351.9161   151      323.3869      Cuts: 93    18517    8.82%
    737     0      351.9144   151      323.3869      Cuts: 50    18595    8.82%
    737     0      351.9069   151      323.3869      Cuts: 37    18641    8.82%
    737     0      351.9041   151      323.3869      Cuts: 46    18696    8.82%
    737     0      351.9034   151      323.3869      Cuts: 36    18721    8.82%
    737     0      351.8937   151      323.3869      Cuts: 42    18776    8.82%
    737     0      351.8824   151      323.3869      Cuts: 37    18839    8.81%
*   737+    0                          331.8661      351.8824             6.03%
*   737+    0                          331.8663      351.8824             6.03%
*   737+    0                          331.8664      351.8824             6.03%
    737     0        cutoff            331.8664      351.8824    18839    6.03%
    737     2      351.8824   155      331.8664      351.8714    18839    6.03%
    740     5      351.1602   128      331.8664      351.1596    19665    5.81%
    747    12      350.6234   131      331.8664      351.1557    20198    5.81%
    756    21      347.8340   129      331.8664      351.1557    21035    5.81%
    778    43      339.6663   127      331.8664      351.1557    22416    5.81%
*   817+   31                          344.6156      351.1444             1.89%
*   827+   35                          346.8638      351.1444             1.23%
    859    50      348.1030   112      346.8638      350.3687    24679    1.01%
*   927+   31                          349.0940      349.5826             0.14%

GUB cover cuts applied:  4
Clique cuts applied:  61
Cover cuts applied:  4
Implied bound cuts applied:  41
Flow cuts applied:  14
Mixed integer rounding cuts applied:  65
Zero-half cuts applied:  19
Lift and project cuts applied:  10
Gomory fractional cuts applied:  20

Root node processing (before b&c):
  Real time             =    0.20 sec. (201.48 ticks)
Sequential b&c:
  Real time             =    3.28 sec. (3715.71 ticks)
                          ------------
Total (root+branch&cut) =    3.49 sec. (3917.19 ticks)

Solution pool: 15 solutions saved.

MIP - Integer optimal, tolerance (0.0001/1e-06):  Objective =  3.4909396636e+02
Current MIP best bound =  3.4910406601e+02 (gap = 0.0100997, 0.00%)
Solution time =    3.49 sec.  Iterations = 29519  Nodes = 948 (44)
Deterministic time = 3917.20 ticks  (1123.67 ticks/sec)


Incumbent solution
Variable Name           Solution Value
F                           385.000000
f1                            0.936034
f2                           34.970000
y57                           1.000000
y121                          1.000000
y200                          1.000000
y110                          1.000000
y273                          1.000000
y154                          1.000000
y184                          1.000000
y190                          1.000000
y246                          1.000000
y216                          1.000000
y252                          1.000000
y26                           1.000000
y289                          1.000000
y34                           1.000000
y201                          1.000000
y250                          1.000000
y114                          1.000000
y96                           1.000000
y119                          1.000000
y63                           1.000000
y229                          1.000000
y87                           1.000000
y117                          1.000000
y53                           1.000000
y125                          1.000000
s4                            6.000000
s7                            6.000000
s9                            6.000000
s10                           6.000000
s13                           6.000000
s42                           6.000000
s57                           6.796939
s61                           6.000000
s62                           6.000000
s71                           6.000000
s79                           6.000000
s82                           6.000000
s85                           6.000000
s86                           6.000000
s89                           6.000000
s93                           6.000000
s101                          6.000000
s113                          6.000000
s118                          6.000000
s120                          6.000000
s121                          6.394238
s139                          6.000000
s150                          6.000000
s159                          6.000000
s165                          6.000000
s174                          6.000000
s182                          6.000000
s186                          6.000000
s191                          6.000000
s200                          6.639545
s205                          6.000000
s206                          6.000000
s217                          6.000000
s237                          6.000000
s240                          6.000000
s247                          6.000000
s251                          6.000000
s274                          6.000000
s110                          7.032171
s273                          6.920645
s154                          6.667025
s152                          6.160000
s184                          7.067714
s190                          7.060495
s172                          6.220000
s246                          7.204480
s216                          7.041664
s126                          6.550000
s252                          6.947644
s26                           7.497996
s91                           6.620000
s289                          6.968057
s34                           6.750694
s201                          7.645545
s160                          6.710000
s250                          7.297558
s83                           6.740000
s55                           6.750000
s114                          6.790000
s96                           6.800000
s119                          7.784027
s63                           7.825901
s229                          7.813334
s87                           7.813334
s117                          7.823939
s53                           7.838425
s125                          8.004604
x244x121x1                    2.000000
x153x154x1                    1.000000
x153x34x1                     1.000000
x95x184x1                     1.000000
x95x289x1                     1.000000
x189x26x1                     1.000000
x183x246x1                    1.000000
x41x96x1                      2.000000
x77x184x1                     1.000000
x77x252x1                     1.000000
x35x154x2                     1.000000
x35x114x2                     1.000000
x12x57x2                      2.000000
x43x34x2                      1.000000
x43x114x2                     1.000000
x271x190x2                    1.000000
x100x246x2                    1.000000
x243x273x2                    2.000000
x185x110x2                    2.000000
x189x119x3                    1.000000
x221x216x3                    1.000000
x221x250x3                    1.000000
x155x216x3                    1.000000
x155x250x3                    1.000000
x183x87x3                     1.000000
x271x252x3                    1.000000
x100x26x3                     1.000000
x64x190x3                     1.000000
x64x289x3                     1.000000
x103x200x3                    2.000000
x57x0x2                       1.000000
x57x125x2                     1.000000
x121x201x1                    2.000000
x200x117x3                    1.000000
x200x53x3                     1.000000
x110x0x2                      2.000000
x273x0x2                      2.000000
x154x117x1                    1.000000
x154x53x2                     1.000000
x184x0x1                      2.000000
x190x0x2                      1.000000
x190x0x3                      1.000000
x246x0x1                      1.000000
x246x0x2                      1.000000
x216x0x3                      2.000000
x252x125x1                    1.000000
x252x0x3                      1.000000
x26x0x1                       1.000000
x26x0x3                       1.000000
x289x0x1                      1.000000
x289x0x3                      1.000000
x34x229x1                     1.000000
x34x119x2                     1.000000
x201x0x1                      2.000000
x250x0x3                      2.000000
x114x63x2                     2.000000
x96x229x1                     1.000000
x96x87x1                      1.000000
x119x0x2                      1.000000
x119x0x3                      1.000000
x63x0x2                       2.000000
x229x0x1                      2.000000
x87x0x1                       1.000000
x87x0x3                       1.000000
x117x0x1                      1.000000
x117x0x3                      1.000000
x53x0x2                       1.000000
x53x0x3                       1.000000
x125x0x1                      1.000000
x125x0x2                      1.000000
s244                          4.960222
z244z121z1                    1.000000
z244z201z1                    1.000000
z244z96z1                     1.000000
z244z229z1                    1.000000
s153                          5.110000
z153z154z1                    1.000000
z153z34z1                     1.000000
z153z96z1                     1.000000
z153z229z1                    1.000000
s95                           5.531109
z95z184z1                     1.000000
z95z289z1                     1.000000
s189                          5.806611
z189z26z1                     1.000000
z189z119z3                    1.000000
s35                           5.047350
z35z154z2                     1.000000
z35z114z2                     1.000000
z35z63z2                      1.000000
s221                          5.045510
z221z216z3                    1.000000
z221z250z3                    1.000000
s12                           5.004670
z12z57z2                      1.000000
z12z110z2                     1.000000
z12z273z2                     1.000000
s155                          5.029150
z155z216z3                    1.000000
z155z250z3                    1.000000
s183                          5.168010
z183z246z1                    1.000000
z183z87z3                     1.000000
s43                           5.113240
z43z34z2                      1.000000
z43z114z2                     1.000000
z43z63z2                      1.000000
s271                          5.014180
z271z190z2                    1.000000
z271z252z3                    1.000000
s100                          5.252690
z100z246z2                    1.000000
z100z26z3                     1.000000
s243                          4.928790
z243z273z2                    1.000000
s41                           5.182070
z41z96z1                      1.000000
z41z229z1                     1.000000
s64                           5.180490
z64z190z3                     1.000000
z64z216z3                     1.000000
z64z289z3                     1.000000
z64z250z3                     1.000000
s77                           5.029910
z77z184z1                     1.000000
z77z252z1                     1.000000
s103                          4.638020
z103z200z3                    1.000000
s185                          5.183330
z185z110z2                    1.000000
z57z125z2                     1.000000
z121z201z1                    1.000000
z200z117z3                    1.000000
z200z53z3                     1.000000
z154z117z1                    1.000000
z154z53z2                     1.000000
z252z125z1                    1.000000
z34z119z2                     1.000000
z34z229z1                     1.000000
z114z63z2                     1.000000
z96z229z1                     1.000000
z96z87z1                      1.000000
All other variables in the range 1-2782 are 0.
